Mack/Bortfeldt(2008)
Bin-Packing-Problem
BP-RG/SBSBPP/SSSCSP
Testcase-ID	9
Problem-ID	20
no_item_types	5
no_items	1900
CONTAINER_DATA (l,w,h)	432	79	1
ITEMS_DATA:
Type	x	y	z	no_items
1	38	30	1	381
2	60	17	1	377
3	33	15	1	387
4	26	18	1	384
5	23	17	1	371
